Quantum-Cryptanalysis/instances/samples/hf_n15/hf_n15_cnf01.cnf
c Parameters to produce the formula :
c key 1 -2 -3 -4 5 6 7 8 9 -10 -11 -12 13 -14 15 16 17 -18 -19 -20 21 22 23 24 -25 -26 27 -28 -29 30 -31 32
c plaintext 1 2 3 -4 -5 6 -7 8 9 -10 11 12 -13 14 15 -16
c ciphertext 1 2 -3 -4 5 -6 7 -8 -9 10 11 12 13 -14 -15 -16
c 
p cnf 15 51
-9 12 -10 0
13 0
-6 -8 7 0
-6 -5 7 0
1 2 4 0
-1 -2 3 0
-8 -5 7 0
6 8 -7 0
10 -9 -12 0
9 -12 -10 0
1 3 4 -2 0
-1 -4 0
-6 -8 5 0
-3 -2 4 0
-3 1 -4 0
-3 2 -4 0
-2 3 -4 0
-6 -7 5 0
10 -11 9 0
-6 8 7 0
-3 1 -2 0
-8 6 -5 0
6 -5 7 0
-8 6 7 0
-8 6 -7 0
10 9 12 0
-6 8 -5 0
15 14 0
-3 2 4 0
-8 -7 5 0
11 -9 -12 0
-13 -14 0
6 8 7 0
-6 8 -7 0
8 -5 7 0
10 -11 12 0
-14 -15 0
10 -11 -12 0
-11 9 12 0
8 5 0
-3 1 4 0
11 -12 -10 0
-11 12 -10 0
-11 -9 -12 -10 0
11 9 12 -10 0
-1 -2 4 0
11 -9 -10 0
10 11 9 -12 0
6 -7 5 0
-3 1 2 0
3 2 -4 0